(set-logic QF_NRA)
(set-info :source |Benchmarks generated from hycomp (https://es-static.fbk.eu/tools/hycomp/). BMC instances of non-linear hybrid automata taken from: Alessandro Cimatti, Sergio Mover, Stefano Tonetta, A quantifier-free SMT encoding of non-linear hybrid automata, FMCAD 2012 and Alessandro Cimatti, Sergio Mover, Stefano Tonetta, Quantier-free encoding of invariants for Hybrid Systems, Formal Methods in System Design. This instance solves a BMC problem of depth 2 and uses the quantifier free encoding with lemmas encoding. Contacts: Sergio Mover (mover@fbk.eu), Stefano Tonetta (tonettas@fbk.eu), Alessandro Cimatti (cimatti@fbk.eu).|)
(set-info :smt-lib-version 2.0)
(set-info :category "industrial")
(set-info :status unsat)
;; MathSAT API call trace
;; generated on Mon Mar 19 10:43:39 2012
(declare-fun b.EVENT.1__AT2 () Bool)
(declare-fun b.counter.2__AT2 () Bool)
(declare-fun b.speed_x__AT1 () Real)
(declare-fun b.counter.3__AT2 () Bool)
(declare-fun b.bool_atom__AT2 () Bool)
(declare-fun b.time__AT1 () Real)
(declare-fun b.x__AT1 () Real)
(declare-fun b.speed_x__AT2 () Real)
(declare-fun b.event_is_timed__AT1 () Bool)
(declare-fun b.counter.0__AT1 () Bool)
(declare-fun b.EVENT.1__AT0 () Bool)
(declare-fun b.speed_y__AT2 () Real)
(declare-fun b.speed_loss__AT0 () Real)
(declare-fun b.counter.1__AT1 () Bool)
(declare-fun b.speed_x__AT0 () Real)
(declare-fun b.counter.2__AT1 () Bool)
(declare-fun b.time__AT0 () Real)
(declare-fun b.counter.2__AT0 () Bool)
(declare-fun b.counter.3__AT1 () Bool)
(declare-fun b.bool_atom__AT1 () Bool)
(declare-fun b.x__AT0 () Real)
(declare-fun b.speed_y__AT1 () Real)
(declare-fun b.delta__AT1 () Real)
(declare-fun b.bool_atom__AT0 () Bool)
(declare-fun b.y__AT0 () Real)
(declare-fun b.EVENT.1__AT1 () Bool)
(declare-fun b.EVENT.0__AT1 () Bool)
(declare-fun b.counter.0__AT0 () Bool)
(declare-fun b.delta__AT0 () Real)
(declare-fun b.counter.1__AT0 () Bool)
(declare-fun b.y__AT1 () Real)
(declare-fun b.EVENT.0__AT0 () Bool)
(declare-fun b.event_is_timed__AT2 () Bool)
(declare-fun b.speed_y__AT0 () Real)
(declare-fun b.time__AT2 () Real)
(declare-fun b.event_is_timed__AT0 () Bool)
(declare-fun b.y__AT2 () Real)
(declare-fun b.delta__AT2 () Real)
(declare-fun b.counter.0__AT2 () Bool)
(declare-fun b.x__AT2 () Real)
(declare-fun b.EVENT.0__AT2 () Bool)
(declare-fun b.counter.1__AT2 () Bool)
(declare-fun b.counter.3__AT0 () Bool)
(assert (let ((.def_726 (* (- 1.0) b.speed_x__AT2)))
(let ((.def_727 (* b.speed_x__AT2 .def_726)))
(let ((.def_728 (* (- 1.0) .def_727)))
(let ((.def_756 (* 2.0 .def_728)))
(let ((.def_814 (* (- 1.0) .def_756)))
(let ((.def_815 (* b.delta__AT2 .def_814)))
(let ((.def_816 (* (- 5.0) .def_815)))
(let ((.def_662 (* (- 1.0) b.x__AT2)))
(let ((.def_739 (* b.speed_x__AT2 .def_662)))
(let ((.def_761 (* (- 5.0) .def_739)))
(let ((.def_821 (+ .def_761 .def_816)))
(let ((.def_734 (* b.x__AT2 .def_726)))
(let ((.def_759 (* (- 5.0) .def_734)))
(let ((.def_822 (+ .def_759 .def_821)))
(let ((.def_763 (* (- 49.0) b.delta__AT2)))
(let ((.def_823 (+ .def_763 .def_822)))
(let ((.def_765 (* 5.0 b.speed_y__AT2)))
(let ((.def_824 (+ .def_765 .def_823)))
(let ((.def_827 (<= 0.0 .def_824)))
(let ((.def_834 (not .def_827)))
(let ((.def_740 (* (- 1.0) .def_739)))
(let ((.def_735 (* (- 1.0) .def_734)))
(let ((.def_773 (+ .def_735 .def_740)))
(let ((.def_774 (+ b.speed_y__AT2 .def_773)))
(let ((.def_775 (<= 0.0 .def_774)))
(let ((.def_835 (or .def_775 .def_834)))
(let ((.def_825 (<= .def_824 0.0 )))
(let ((.def_789 (<= .def_774 0.0 )))
(let ((.def_790 (not .def_789)))
(let ((.def_833 (or .def_790 .def_825)))
(let ((.def_836 (and .def_833 .def_835)))
(let ((.def_805 (<= .def_727 (- (/ 49 10)))))
(let ((.def_837 (or .def_805 .def_836)))
(let ((.def_829 (not .def_825)))
(let ((.def_830 (or .def_789 .def_829)))
(let ((.def_776 (not .def_775)))
(let ((.def_828 (or .def_776 .def_827)))
(let ((.def_831 (and .def_828 .def_830)))
(let ((.def_810 (<= (- (/ 49 10)) .def_727)))
(let ((.def_832 (or .def_810 .def_831)))
(let ((.def_838 (and .def_832 .def_837)))
(let ((.def_826 (and .def_789 .def_825)))
(let ((.def_839 (and .def_826 .def_838)))
(let ((.def_757 (* b.delta__AT2 .def_756)))
(let ((.def_758 (* 5.0 .def_757)))
(let ((.def_767 (+ .def_761 .def_758)))
(let ((.def_768 (+ .def_759 .def_767)))
(let ((.def_769 (+ .def_763 .def_768)))
(let ((.def_770 (+ .def_765 .def_769)))
(let ((.def_787 (<= .def_770 0.0 )))
(let ((.def_788 (not .def_787)))
(let ((.def_808 (or .def_788 .def_789)))
(let ((.def_771 (<= 0.0 .def_770)))
(let ((.def_807 (or .def_771 .def_776)))
(let ((.def_809 (and .def_807 .def_808)))
(let ((.def_811 (or .def_809 .def_810)))
(let ((.def_772 (not .def_771)))
(let ((.def_803 (or .def_772 .def_775)))
(let ((.def_802 (or .def_787 .def_790)))
(let ((.def_804 (and .def_802 .def_803)))
(let ((.def_806 (or .def_804 .def_805)))
(let ((.def_812 (and .def_806 .def_811)))
(let ((.def_801 (and .def_771 .def_775)))
(let ((.def_813 (and .def_801 .def_812)))
(let ((.def_840 (or .def_813 .def_839)))
(let ((.def_741 (* b.delta__AT2 .def_740)))
(let ((.def_742 (* 10.0 .def_741)))
(let ((.def_736 (* b.delta__AT2 .def_735)))
(let ((.def_737 (* 10.0 .def_736)))
(let ((.def_748 (+ .def_737 .def_742)))
(let ((.def_725 (* b.delta__AT2 b.delta__AT2)))
(let ((.def_729 (* .def_725 .def_728)))
(let ((.def_730 (* 10.0 .def_729)))
(let ((.def_749 (+ .def_730 .def_748)))
(let ((.def_732 (* (- 49.0) .def_725)))
(let ((.def_750 (+ .def_732 .def_749)))
(let ((.def_723 (* b.speed_y__AT2 b.delta__AT2)))
(let ((.def_724 (* 10.0 .def_723)))
(let ((.def_751 (+ .def_724 .def_750)))
(let ((.def_708 (* b.x__AT2 .def_662)))
(let ((.def_744 (* (- 10.0) .def_708)))
(let ((.def_752 (+ .def_744 .def_751)))
(let ((.def_746 (* 10.0 b.y__AT2)))
(let ((.def_753 (+ .def_746 .def_752)))
(let ((.def_781 (<= .def_753 0.0 )))
(let ((.def_795 (not .def_781)))
(let ((.def_779 (<= b.y__AT2 .def_708)))
(let ((.def_796 (or .def_779 .def_795)))
(let ((.def_709 (<= .def_708 b.y__AT2)))
(let ((.def_793 (not .def_709)))
(let ((.def_754 (<= 0.0 .def_753)))
(let ((.def_794 (or .def_754 .def_793)))
(let ((.def_797 (and .def_794 .def_796)))
(let ((.def_791 (or .def_788 .def_790)))
(let ((.def_792 (not .def_791)))
(let ((.def_798 (or .def_792 .def_797)))
(let ((.def_783 (not .def_754)))
(let ((.def_784 (or .def_709 .def_783)))
(let ((.def_780 (not .def_779)))
(let ((.def_782 (or .def_780 .def_781)))
(let ((.def_785 (and .def_782 .def_784)))
(let ((.def_777 (or .def_772 .def_776)))
(let ((.def_778 (not .def_777)))
(let ((.def_786 (or .def_778 .def_785)))
(let ((.def_799 (and .def_786 .def_798)))
(let ((.def_755 (and .def_709 .def_754)))
(let ((.def_800 (and .def_755 .def_799)))
(let ((.def_841 (and .def_800 .def_840)))
(let ((.def_72 (<= b.speed_loss__AT0 (/ 1 2))))
(let ((.def_69 (<= (/ 1 10) b.speed_loss__AT0)))
(let ((.def_73 (and .def_69 .def_72)))
(let ((.def_842 (and .def_73 .def_841)))
(let ((.def_309 (not b.counter.0__AT1)))
(let ((.def_299 (not b.counter.1__AT1)))
(let ((.def_714 (and .def_299 .def_309)))
(let ((.def_718 (or b.counter.3__AT1 .def_714)))
(let ((.def_715 (or b.counter.2__AT1 .def_714)))
(let ((.def_304 (not b.counter.2__AT1)))
(let ((.def_713 (or .def_299 .def_304)))
(let ((.def_716 (and .def_713 .def_715)))
(let ((.def_318 (not b.counter.3__AT1)))
(let ((.def_717 (or .def_318 .def_716)))
(let ((.def_719 (and .def_717 .def_718)))
(let ((.def_710 (and .def_73 .def_709)))
(let ((.def_705 (not b.EVENT.0__AT2)))
(let ((.def_703 (not b.EVENT.1__AT2)))
(let ((.def_706 (or .def_703 .def_705)))
(let ((.def_9 (not b.counter.0__AT2)))
(let ((.def_6 (not b.counter.1__AT2)))
(let ((.def_696 (or .def_6 .def_9)))
(let ((.def_700 (or b.counter.3__AT2 .def_696)))
(let ((.def_697 (or b.counter.2__AT2 .def_696)))
(let ((.def_4 (not b.counter.2__AT2)))
(let ((.def_695 (or .def_4 .def_9)))
(let ((.def_698 (and .def_695 .def_697)))
(let ((.def_14 (not b.counter.3__AT2)))
(let ((.def_699 (or .def_14 .def_698)))
(let ((.def_701 (and .def_699 .def_700)))
(let ((.def_707 (and .def_701 .def_706)))
(let ((.def_711 (and .def_707 .def_710)))
(let ((.def_690 (<= 0.0 b.delta__AT1)))
(let ((.def_396 (not b.EVENT.0__AT1)))
(let ((.def_394 (not b.EVENT.1__AT1)))
(let ((.def_534 (and .def_394 .def_396)))
(let ((.def_536 (not .def_534)))
(let ((.def_691 (or .def_536 .def_690)))
(let ((.def_692 (or b.EVENT.1__AT1 .def_691)))
(let ((.def_574 (= b.bool_atom__AT1 b.bool_atom__AT2)))
(let ((.def_570 (= b.counter.0__AT2 b.counter.0__AT1)))
(let ((.def_568 (= b.counter.1__AT2 b.counter.1__AT1)))
(let ((.def_566 (= b.counter.2__AT2 b.counter.2__AT1)))
(let ((.def_565 (= b.counter.3__AT2 b.counter.3__AT1)))
(let ((.def_567 (and .def_565 .def_566)))
(let ((.def_569 (and .def_567 .def_568)))
(let ((.def_571 (and .def_569 .def_570)))
(let ((.def_686 (and .def_571 .def_574)))
(let ((.def_687 (or .def_536 .def_686)))
(let ((.def_688 (or b.EVENT.1__AT1 .def_687)))
(let ((.def_674 (* (- 10.0) b.y__AT2)))
(let ((.def_415 (* b.delta__AT1 b.delta__AT1)))
(let ((.def_422 (* (- 49.0) .def_415)))
(let ((.def_678 (+ .def_422 .def_674)))
(let ((.def_413 (* b.speed_y__AT1 b.delta__AT1)))
(let ((.def_414 (* 10.0 .def_413)))
(let ((.def_679 (+ .def_414 .def_678)))
(let ((.def_436 (* 10.0 b.y__AT1)))
(let ((.def_680 (+ .def_436 .def_679)))
(let ((.def_681 (= .def_680 0.0 )))
(let ((.def_669 (* (- 5.0) b.speed_y__AT2)))
(let ((.def_453 (* (- 49.0) b.delta__AT1)))
(let ((.def_670 (+ .def_453 .def_669)))
(let ((.def_455 (* 5.0 b.speed_y__AT1)))
(let ((.def_671 (+ .def_455 .def_670)))
(let ((.def_672 (= .def_671 0.0 )))
(let ((.def_661 (* b.speed_x__AT1 b.delta__AT1)))
(let ((.def_665 (+ .def_662 .def_661)))
(let ((.def_666 (+ b.x__AT1 .def_665)))
(let ((.def_667 (= .def_666 0.0 )))
(let ((.def_560 (= b.speed_x__AT1 b.speed_x__AT2)))
(let ((.def_668 (and .def_560 .def_667)))
(let ((.def_673 (and .def_668 .def_672)))
(let ((.def_682 (and .def_673 .def_681)))
(let ((.def_683 (or .def_536 .def_682)))
(let ((.def_557 (= b.y__AT1 b.y__AT2)))
(let ((.def_554 (= b.x__AT1 b.x__AT2)))
(let ((.def_655 (and .def_554 .def_557)))
(let ((.def_656 (and .def_560 .def_655)))
(let ((.def_563 (= b.speed_y__AT1 b.speed_y__AT2)))
(let ((.def_657 (and .def_563 .def_656)))
(let ((.def_652 (= b.delta__AT1 0.0 )))
(let ((.def_653 (and .def_534 .def_652)))
(let ((.def_654 (not .def_653)))
(let ((.def_658 (or .def_654 .def_657)))
(let ((.def_659 (or b.EVENT.1__AT1 .def_658)))
(let ((.def_644 (and .def_560 .def_563)))
(let ((.def_645 (and .def_571 .def_644)))
(let ((.def_646 (or b.bool_atom__AT1 .def_645)))
(let ((.def_620 (or .def_9 b.counter.0__AT1)))
(let ((.def_619 (or b.counter.0__AT2 .def_309)))
(let ((.def_621 (and .def_619 .def_620)))
(let ((.def_622 (and .def_6 .def_621)))
(let ((.def_623 (or b.counter.1__AT1 .def_622)))
(let ((.def_618 (or b.counter.1__AT2 .def_299)))
(let ((.def_624 (and .def_618 .def_623)))
(let ((.def_635 (and .def_4 .def_624)))
(let ((.def_636 (or b.counter.2__AT1 .def_635)))
(let ((.def_630 (and .def_6 .def_309)))
(let ((.def_631 (or b.counter.1__AT1 .def_630)))
(let ((.def_632 (and .def_618 .def_631)))
(let ((.def_633 (and b.counter.2__AT2 .def_632)))
(let ((.def_634 (or .def_304 .def_633)))
(let ((.def_637 (and .def_634 .def_636)))
(let ((.def_638 (and b.counter.3__AT2 .def_637)))
(let ((.def_639 (or b.counter.3__AT1 .def_638)))
(let ((.def_625 (and b.counter.2__AT2 .def_624)))
(let ((.def_626 (or b.counter.2__AT1 .def_625)))
(let ((.def_614 (or b.counter.1__AT2 b.counter.1__AT1)))
(let ((.def_612 (and .def_6 b.counter.0__AT2)))
(let ((.def_613 (or .def_299 .def_612)))
(let ((.def_615 (and .def_613 .def_614)))
(let ((.def_616 (and .def_4 .def_615)))
(let ((.def_617 (or .def_304 .def_616)))
(let ((.def_627 (and .def_617 .def_626)))
(let ((.def_628 (and .def_14 .def_627)))
(let ((.def_629 (or .def_318 .def_628)))
(let ((.def_640 (and .def_629 .def_639)))
(let ((.def_285 (* b.speed_y__AT1 b.speed_y__AT1)))
(let ((.def_283 (* b.speed_x__AT1 b.speed_x__AT1)))
(let ((.def_604 (+ .def_283 .def_285)))
(let ((.def_271 (* (- 1.0) b.speed_loss__AT0)))
(let ((.def_272 (+ 1.0 .def_271)))
(let ((.def_288 (* .def_272 .def_272)))
(let ((.def_605 (* .def_288 .def_604)))
(let ((.def_607 (* (- 1.0) .def_605)))
(let ((.def_601 (* b.speed_y__AT2 b.speed_y__AT2)))
(let ((.def_608 (+ .def_601 .def_607)))
(let ((.def_599 (* b.speed_x__AT2 b.speed_x__AT2)))
(let ((.def_609 (+ .def_599 .def_608)))
(let ((.def_610 (= .def_609 0.0 )))
(let ((.def_592 (* b.speed_y__AT1 .def_272)))
(let ((.def_268 (* (- 2.0) b.x__AT1)))
(let ((.def_269 (* (- 1.0) .def_268)))
(let ((.def_589 (* .def_269 .def_272)))
(let ((.def_590 (* b.speed_x__AT1 .def_589)))
(let ((.def_595 (+ .def_590 .def_592)))
(let ((.def_586 (* (- 2.0) b.x__AT2)))
(let ((.def_587 (* (- 1.0) .def_586)))
(let ((.def_588 (* b.speed_x__AT2 .def_587)))
(let ((.def_596 (+ .def_588 .def_595)))
(let ((.def_597 (+ b.speed_y__AT2 .def_596)))
(let ((.def_598 (= .def_597 0.0 )))
(let ((.def_611 (and .def_598 .def_610)))
(let ((.def_641 (and .def_611 .def_640)))
(let ((.def_585 (not b.bool_atom__AT1)))
(let ((.def_642 (or .def_585 .def_641)))
(let ((.def_270 (* b.speed_x__AT1 .def_269)))
(let ((.def_580 (+ b.speed_y__AT1 .def_270)))
(let ((.def_581 (<= 0.0 .def_580)))
(let ((.def_582 (not .def_581)))
(let ((.def_353 (* (- 1.0) b.x__AT1)))
(let ((.def_399 (* b.x__AT1 .def_353)))
(let ((.def_579 (= b.y__AT1 .def_399)))
(let ((.def_583 (and .def_579 .def_582)))
(let ((.def_584 (= b.bool_atom__AT1 .def_583)))
(let ((.def_643 (and .def_584 .def_642)))
(let ((.def_647 (and .def_643 .def_646)))
(let ((.def_648 (and .def_554 .def_647)))
(let ((.def_649 (and .def_557 .def_648)))
(let ((.def_650 (or .def_534 .def_649)))
(let ((.def_651 (or b.EVENT.1__AT1 .def_650)))
(let ((.def_660 (and .def_651 .def_659)))
(let ((.def_684 (and .def_660 .def_683)))
(let ((.def_541 (= b.time__AT1 b.time__AT2)))
(let ((.def_555 (and .def_541 .def_554)))
(let ((.def_558 (and .def_555 .def_557)))
(let ((.def_561 (and .def_558 .def_560)))
(let ((.def_564 (and .def_561 .def_563)))
(let ((.def_572 (and .def_564 .def_571)))
(let ((.def_575 (and .def_572 .def_574)))
(let ((.def_576 (or .def_394 .def_575)))
(let ((.def_544 (* (- 1.0) b.time__AT2)))
(let ((.def_547 (+ b.delta__AT1 .def_544)))
(let ((.def_548 (+ b.time__AT1 .def_547)))
(let ((.def_549 (= .def_548 0.0 )))
(let ((.def_550 (or .def_536 .def_549)))
(let ((.def_551 (or b.EVENT.1__AT1 .def_550)))
(let ((.def_542 (or .def_534 .def_541)))
(let ((.def_543 (or b.EVENT.1__AT1 .def_542)))
(let ((.def_552 (and .def_543 .def_551)))
(let ((.def_577 (and .def_552 .def_576)))
(let ((.def_538 (= .def_536 b.event_is_timed__AT2)))
(let ((.def_535 (= b.event_is_timed__AT1 .def_534)))
(let ((.def_539 (and .def_535 .def_538)))
(let ((.def_578 (and .def_539 .def_577)))
(let ((.def_685 (and .def_578 .def_684)))
(let ((.def_689 (and .def_685 .def_688)))
(let ((.def_693 (and .def_689 .def_692)))
(let ((.def_694 (and .def_394 .def_693)))
(let ((.def_712 (and .def_694 .def_711)))
(let ((.def_720 (and .def_712 .def_719)))
(let ((.def_416 (* (- 1.0) b.speed_x__AT1)))
(let ((.def_417 (* b.speed_x__AT1 .def_416)))
(let ((.def_418 (* (- 1.0) .def_417)))
(let ((.def_446 (* 2.0 .def_418)))
(let ((.def_504 (* (- 1.0) .def_446)))
(let ((.def_505 (* b.delta__AT1 .def_504)))
(let ((.def_506 (* (- 5.0) .def_505)))
(let ((.def_429 (* b.speed_x__AT1 .def_353)))
(let ((.def_451 (* (- 5.0) .def_429)))
(let ((.def_511 (+ .def_451 .def_506)))
(let ((.def_424 (* b.x__AT1 .def_416)))
(let ((.def_449 (* (- 5.0) .def_424)))
(let ((.def_512 (+ .def_449 .def_511)))
(let ((.def_513 (+ .def_453 .def_512)))
(let ((.def_514 (+ .def_455 .def_513)))
(let ((.def_517 (<= 0.0 .def_514)))
(let ((.def_524 (not .def_517)))
(let ((.def_430 (* (- 1.0) .def_429)))
(let ((.def_425 (* (- 1.0) .def_424)))
(let ((.def_463 (+ .def_425 .def_430)))
(let ((.def_464 (+ b.speed_y__AT1 .def_463)))
(let ((.def_465 (<= 0.0 .def_464)))
(let ((.def_525 (or .def_465 .def_524)))
(let ((.def_515 (<= .def_514 0.0 )))
(let ((.def_479 (<= .def_464 0.0 )))
(let ((.def_480 (not .def_479)))
(let ((.def_523 (or .def_480 .def_515)))
(let ((.def_526 (and .def_523 .def_525)))
(let ((.def_495 (<= .def_417 (- (/ 49 10)))))
(let ((.def_527 (or .def_495 .def_526)))
(let ((.def_519 (not .def_515)))
(let ((.def_520 (or .def_479 .def_519)))
(let ((.def_466 (not .def_465)))
(let ((.def_518 (or .def_466 .def_517)))
(let ((.def_521 (and .def_518 .def_520)))
(let ((.def_500 (<= (- (/ 49 10)) .def_417)))
(let ((.def_522 (or .def_500 .def_521)))
(let ((.def_528 (and .def_522 .def_527)))
(let ((.def_516 (and .def_479 .def_515)))
(let ((.def_529 (and .def_516 .def_528)))
(let ((.def_447 (* b.delta__AT1 .def_446)))
(let ((.def_448 (* 5.0 .def_447)))
(let ((.def_457 (+ .def_451 .def_448)))
(let ((.def_458 (+ .def_449 .def_457)))
(let ((.def_459 (+ .def_453 .def_458)))
(let ((.def_460 (+ .def_455 .def_459)))
(let ((.def_477 (<= .def_460 0.0 )))
(let ((.def_478 (not .def_477)))
(let ((.def_498 (or .def_478 .def_479)))
(let ((.def_461 (<= 0.0 .def_460)))
(let ((.def_497 (or .def_461 .def_466)))
(let ((.def_499 (and .def_497 .def_498)))
(let ((.def_501 (or .def_499 .def_500)))
(let ((.def_462 (not .def_461)))
(let ((.def_493 (or .def_462 .def_465)))
(let ((.def_492 (or .def_477 .def_480)))
(let ((.def_494 (and .def_492 .def_493)))
(let ((.def_496 (or .def_494 .def_495)))
(let ((.def_502 (and .def_496 .def_501)))
(let ((.def_491 (and .def_461 .def_465)))
(let ((.def_503 (and .def_491 .def_502)))
(let ((.def_530 (or .def_503 .def_529)))
(let ((.def_431 (* b.delta__AT1 .def_430)))
(let ((.def_432 (* 10.0 .def_431)))
(let ((.def_426 (* b.delta__AT1 .def_425)))
(let ((.def_427 (* 10.0 .def_426)))
(let ((.def_438 (+ .def_427 .def_432)))
(let ((.def_419 (* .def_415 .def_418)))
(let ((.def_420 (* 10.0 .def_419)))
(let ((.def_439 (+ .def_420 .def_438)))
(let ((.def_440 (+ .def_422 .def_439)))
(let ((.def_441 (+ .def_414 .def_440)))
(let ((.def_434 (* (- 10.0) .def_399)))
(let ((.def_442 (+ .def_434 .def_441)))
(let ((.def_443 (+ .def_436 .def_442)))
(let ((.def_471 (<= .def_443 0.0 )))
(let ((.def_485 (not .def_471)))
(let ((.def_469 (<= b.y__AT1 .def_399)))
(let ((.def_486 (or .def_469 .def_485)))
(let ((.def_400 (<= .def_399 b.y__AT1)))
(let ((.def_483 (not .def_400)))
(let ((.def_444 (<= 0.0 .def_443)))
(let ((.def_484 (or .def_444 .def_483)))
(let ((.def_487 (and .def_484 .def_486)))
(let ((.def_481 (or .def_478 .def_480)))
(let ((.def_482 (not .def_481)))
(let ((.def_488 (or .def_482 .def_487)))
(let ((.def_473 (not .def_444)))
(let ((.def_474 (or .def_400 .def_473)))
(let ((.def_470 (not .def_469)))
(let ((.def_472 (or .def_470 .def_471)))
(let ((.def_475 (and .def_472 .def_474)))
(let ((.def_467 (or .def_462 .def_466)))
(let ((.def_468 (not .def_467)))
(let ((.def_476 (or .def_468 .def_475)))
(let ((.def_489 (and .def_476 .def_488)))
(let ((.def_445 (and .def_400 .def_444)))
(let ((.def_490 (and .def_445 .def_489)))
(let ((.def_531 (and .def_490 .def_530)))
(let ((.def_532 (and .def_73 .def_531)))
(let ((.def_41 (not b.counter.0__AT0)))
(let ((.def_39 (not b.counter.1__AT0)))
(let ((.def_42 (and .def_39 .def_41)))
(let ((.def_408 (or .def_42 b.counter.3__AT0)))
(let ((.def_405 (or .def_42 b.counter.2__AT0)))
(let ((.def_44 (not b.counter.2__AT0)))
(let ((.def_404 (or .def_39 .def_44)))
(let ((.def_406 (and .def_404 .def_405)))
(let ((.def_47 (not b.counter.3__AT0)))
(let ((.def_407 (or .def_47 .def_406)))
(let ((.def_409 (and .def_407 .def_408)))
(let ((.def_401 (and .def_73 .def_400)))
(let ((.def_397 (or .def_394 .def_396)))
(let ((.def_387 (or .def_299 .def_309)))
(let ((.def_391 (or b.counter.3__AT1 .def_387)))
(let ((.def_388 (or b.counter.2__AT1 .def_387)))
(let ((.def_386 (or .def_304 .def_309)))
(let ((.def_389 (and .def_386 .def_388)))
(let ((.def_390 (or .def_318 .def_389)))
(let ((.def_392 (and .def_390 .def_391)))
(let ((.def_398 (and .def_392 .def_397)))
(let ((.def_402 (and .def_398 .def_401)))
(let ((.def_381 (<= 0.0 b.delta__AT0)))
(let ((.def_60 (not b.EVENT.0__AT0)))
(let ((.def_58 (not b.EVENT.1__AT0)))
(let ((.def_207 (and .def_58 .def_60)))
(let ((.def_209 (not .def_207)))
(let ((.def_382 (or .def_209 .def_381)))
(let ((.def_383 (or b.EVENT.1__AT0 .def_382)))
(let ((.def_252 (= b.bool_atom__AT0 b.bool_atom__AT1)))
(let ((.def_247 (= b.counter.0__AT0 b.counter.0__AT1)))
(let ((.def_244 (= b.counter.1__AT0 b.counter.1__AT1)))
(let ((.def_241 (= b.counter.2__AT0 b.counter.2__AT1)))
(let ((.def_239 (= b.counter.3__AT0 b.counter.3__AT1)))
(let ((.def_242 (and .def_239 .def_241)))
(let ((.def_245 (and .def_242 .def_244)))
(let ((.def_248 (and .def_245 .def_247)))
(let ((.def_377 (and .def_248 .def_252)))
(let ((.def_378 (or .def_209 .def_377)))
(let ((.def_379 (or b.EVENT.1__AT0 .def_378)))
(let ((.def_366 (* (- 10.0) b.y__AT1)))
(let ((.def_81 (* b.delta__AT0 b.delta__AT0)))
(let ((.def_90 (* (- 49.0) .def_81)))
(let ((.def_369 (+ .def_90 .def_366)))
(let ((.def_79 (* b.speed_y__AT0 b.delta__AT0)))
(let ((.def_80 (* 10.0 .def_79)))
(let ((.def_370 (+ .def_80 .def_369)))
(let ((.def_105 (* 10.0 b.y__AT0)))
(let ((.def_371 (+ .def_105 .def_370)))
(let ((.def_372 (= .def_371 0.0 )))
(let ((.def_360 (* (- 5.0) b.speed_y__AT1)))
(let ((.def_124 (* (- 49.0) b.delta__AT0)))
(let ((.def_361 (+ .def_124 .def_360)))
(let ((.def_126 (* 5.0 b.speed_y__AT0)))
(let ((.def_362 (+ .def_126 .def_361)))
(let ((.def_363 (= .def_362 0.0 )))
(let ((.def_352 (* b.speed_x__AT0 b.delta__AT0)))
(let ((.def_356 (+ .def_353 .def_352)))
(let ((.def_357 (+ b.x__AT0 .def_356)))
(let ((.def_358 (= .def_357 0.0 )))
(let ((.def_233 (= b.speed_x__AT0 b.speed_x__AT1)))
(let ((.def_359 (and .def_233 .def_358)))
(let ((.def_364 (and .def_359 .def_363)))
(let ((.def_373 (and .def_364 .def_372)))
(let ((.def_374 (or .def_209 .def_373)))
(let ((.def_230 (= b.y__AT0 b.y__AT1)))
(let ((.def_227 (= b.x__AT0 b.x__AT1)))
(let ((.def_346 (and .def_227 .def_230)))
(let ((.def_347 (and .def_233 .def_346)))
(let ((.def_236 (= b.speed_y__AT0 b.speed_y__AT1)))
(let ((.def_348 (and .def_236 .def_347)))
(let ((.def_343 (= b.delta__AT0 0.0 )))
(let ((.def_344 (and .def_207 .def_343)))
(let ((.def_345 (not .def_344)))
(let ((.def_349 (or .def_345 .def_348)))
(let ((.def_350 (or b.EVENT.1__AT0 .def_349)))
(let ((.def_335 (and .def_233 .def_236)))
(let ((.def_336 (and .def_248 .def_335)))
(let ((.def_337 (or b.bool_atom__AT0 .def_336)))
(let ((.def_310 (or b.counter.0__AT0 .def_309)))
(let ((.def_308 (or .def_41 b.counter.0__AT1)))
(let ((.def_311 (and .def_308 .def_310)))
(let ((.def_312 (and .def_299 .def_311)))
(let ((.def_313 (or b.counter.1__AT0 .def_312)))
(let ((.def_307 (or .def_39 b.counter.1__AT1)))
(let ((.def_314 (and .def_307 .def_313)))
(let ((.def_326 (and .def_304 .def_314)))
(let ((.def_327 (or b.counter.2__AT0 .def_326)))
(let ((.def_321 (and .def_41 .def_299)))
(let ((.def_322 (or b.counter.1__AT0 .def_321)))
(let ((.def_323 (and .def_307 .def_322)))
(let ((.def_324 (and b.counter.2__AT1 .def_323)))
(let ((.def_325 (or .def_44 .def_324)))
(let ((.def_328 (and .def_325 .def_327)))
(let ((.def_329 (and b.counter.3__AT1 .def_328)))
(let ((.def_330 (or b.counter.3__AT0 .def_329)))
(let ((.def_315 (and b.counter.2__AT1 .def_314)))
(let ((.def_316 (or b.counter.2__AT0 .def_315)))
(let ((.def_302 (or b.counter.1__AT0 b.counter.1__AT1)))
(let ((.def_300 (and b.counter.0__AT1 .def_299)))
(let ((.def_301 (or .def_39 .def_300)))
(let ((.def_303 (and .def_301 .def_302)))
(let ((.def_305 (and .def_303 .def_304)))
(let ((.def_306 (or .def_44 .def_305)))
(let ((.def_317 (and .def_306 .def_316)))
(let ((.def_319 (and .def_317 .def_318)))
(let ((.def_320 (or .def_47 .def_319)))
(let ((.def_331 (and .def_320 .def_330)))
(let ((.def_290 (* b.speed_y__AT0 b.speed_y__AT0)))
(let ((.def_289 (* b.speed_x__AT0 b.speed_x__AT0)))
(let ((.def_291 (+ .def_289 .def_290)))
(let ((.def_292 (* .def_288 .def_291)))
(let ((.def_294 (* (- 1.0) .def_292)))
(let ((.def_295 (+ .def_285 .def_294)))
(let ((.def_296 (+ .def_283 .def_295)))
(let ((.def_297 (= .def_296 0.0 )))
(let ((.def_276 (* b.speed_y__AT0 .def_272)))
(let ((.def_259 (* (- 2.0) b.x__AT0)))
(let ((.def_260 (* (- 1.0) .def_259)))
(let ((.def_273 (* .def_260 .def_272)))
(let ((.def_274 (* b.speed_x__AT0 .def_273)))
(let ((.def_279 (+ .def_274 .def_276)))
(let ((.def_280 (+ .def_270 .def_279)))
(let ((.def_281 (+ b.speed_y__AT1 .def_280)))
(let ((.def_282 (= .def_281 0.0 )))
(let ((.def_298 (and .def_282 .def_297)))
(let ((.def_332 (and .def_298 .def_331)))
(let ((.def_267 (not b.bool_atom__AT0)))
(let ((.def_333 (or .def_267 .def_332)))
(let ((.def_261 (* b.speed_x__AT0 .def_260)))
(let ((.def_262 (+ b.speed_y__AT0 .def_261)))
(let ((.def_263 (<= 0.0 .def_262)))
(let ((.def_264 (not .def_263)))
(let ((.def_64 (* (- 1.0) b.x__AT0)))
(let ((.def_65 (* b.x__AT0 .def_64)))
(let ((.def_257 (= b.y__AT0 .def_65)))
(let ((.def_265 (and .def_257 .def_264)))
(let ((.def_266 (= b.bool_atom__AT0 .def_265)))
(let ((.def_334 (and .def_266 .def_333)))
(let ((.def_338 (and .def_334 .def_337)))
(let ((.def_339 (and .def_227 .def_338)))
(let ((.def_340 (and .def_230 .def_339)))
(let ((.def_341 (or .def_207 .def_340)))
(let ((.def_342 (or b.EVENT.1__AT0 .def_341)))
(let ((.def_351 (and .def_342 .def_350)))
(let ((.def_375 (and .def_351 .def_374)))
(let ((.def_214 (= b.time__AT0 b.time__AT1)))
(let ((.def_228 (and .def_214 .def_227)))
(let ((.def_231 (and .def_228 .def_230)))
(let ((.def_234 (and .def_231 .def_233)))
(let ((.def_237 (and .def_234 .def_236)))
(let ((.def_249 (and .def_237 .def_248)))
(let ((.def_253 (and .def_249 .def_252)))
(let ((.def_254 (or .def_58 .def_253)))
(let ((.def_217 (* (- 1.0) b.time__AT1)))
(let ((.def_220 (+ b.delta__AT0 .def_217)))
(let ((.def_221 (+ b.time__AT0 .def_220)))
(let ((.def_222 (= .def_221 0.0 )))
(let ((.def_223 (or .def_209 .def_222)))
(let ((.def_224 (or b.EVENT.1__AT0 .def_223)))
(let ((.def_215 (or .def_207 .def_214)))
(let ((.def_216 (or b.EVENT.1__AT0 .def_215)))
(let ((.def_225 (and .def_216 .def_224)))
(let ((.def_255 (and .def_225 .def_254)))
(let ((.def_211 (= .def_209 b.event_is_timed__AT1)))
(let ((.def_208 (= b.event_is_timed__AT0 .def_207)))
(let ((.def_212 (and .def_208 .def_211)))
(let ((.def_256 (and .def_212 .def_255)))
(let ((.def_376 (and .def_256 .def_375)))
(let ((.def_380 (and .def_376 .def_379)))
(let ((.def_384 (and .def_380 .def_383)))
(let ((.def_385 (and .def_58 .def_384)))
(let ((.def_403 (and .def_385 .def_402)))
(let ((.def_410 (and .def_403 .def_409)))
(let ((.def_82 (* (- 1.0) b.speed_x__AT0)))
(let ((.def_83 (* b.speed_x__AT0 .def_82)))
(let ((.def_84 (* (- 1.0) .def_83)))
(let ((.def_115 (* 2.0 .def_84)))
(let ((.def_177 (* (- 1.0) .def_115)))
(let ((.def_178 (* b.delta__AT0 .def_177)))
(let ((.def_179 (* (- 5.0) .def_178)))
(let ((.def_97 (* b.speed_x__AT0 .def_64)))
(let ((.def_122 (* (- 5.0) .def_97)))
(let ((.def_184 (+ .def_122 .def_179)))
(let ((.def_92 (* b.x__AT0 .def_82)))
(let ((.def_120 (* (- 5.0) .def_92)))
(let ((.def_185 (+ .def_120 .def_184)))
(let ((.def_186 (+ .def_124 .def_185)))
(let ((.def_187 (+ .def_126 .def_186)))
(let ((.def_190 (<= 0.0 .def_187)))
(let ((.def_197 (not .def_190)))
(let ((.def_98 (* (- 1.0) .def_97)))
(let ((.def_93 (* (- 1.0) .def_92)))
(let ((.def_134 (+ .def_93 .def_98)))
(let ((.def_135 (+ b.speed_y__AT0 .def_134)))
(let ((.def_136 (<= 0.0 .def_135)))
(let ((.def_198 (or .def_136 .def_197)))
(let ((.def_188 (<= .def_187 0.0 )))
(let ((.def_150 (<= .def_135 0.0 )))
(let ((.def_151 (not .def_150)))
(let ((.def_196 (or .def_151 .def_188)))
(let ((.def_199 (and .def_196 .def_198)))
(let ((.def_168 (<= .def_83 (- (/ 49 10)))))
(let ((.def_200 (or .def_168 .def_199)))
(let ((.def_192 (not .def_188)))
(let ((.def_193 (or .def_150 .def_192)))
(let ((.def_137 (not .def_136)))
(let ((.def_191 (or .def_137 .def_190)))
(let ((.def_194 (and .def_191 .def_193)))
(let ((.def_173 (<= (- (/ 49 10)) .def_83)))
(let ((.def_195 (or .def_173 .def_194)))
(let ((.def_201 (and .def_195 .def_200)))
(let ((.def_189 (and .def_150 .def_188)))
(let ((.def_202 (and .def_189 .def_201)))
(let ((.def_116 (* b.delta__AT0 .def_115)))
(let ((.def_118 (* 5.0 .def_116)))
(let ((.def_128 (+ .def_122 .def_118)))
(let ((.def_129 (+ .def_120 .def_128)))
(let ((.def_130 (+ .def_124 .def_129)))
(let ((.def_131 (+ .def_126 .def_130)))
(let ((.def_148 (<= .def_131 0.0 )))
(let ((.def_149 (not .def_148)))
(let ((.def_171 (or .def_149 .def_150)))
(let ((.def_132 (<= 0.0 .def_131)))
(let ((.def_170 (or .def_132 .def_137)))
(let ((.def_172 (and .def_170 .def_171)))
(let ((.def_174 (or .def_172 .def_173)))
(let ((.def_133 (not .def_132)))
(let ((.def_164 (or .def_133 .def_136)))
(let ((.def_163 (or .def_148 .def_151)))
(let ((.def_165 (and .def_163 .def_164)))
(let ((.def_169 (or .def_165 .def_168)))
(let ((.def_175 (and .def_169 .def_174)))
(let ((.def_162 (and .def_132 .def_136)))
(let ((.def_176 (and .def_162 .def_175)))
(let ((.def_203 (or .def_176 .def_202)))
(let ((.def_99 (* b.delta__AT0 .def_98)))
(let ((.def_100 (* 10.0 .def_99)))
(let ((.def_94 (* b.delta__AT0 .def_93)))
(let ((.def_95 (* 10.0 .def_94)))
(let ((.def_107 (+ .def_95 .def_100)))
(let ((.def_85 (* .def_81 .def_84)))
(let ((.def_86 (* 10.0 .def_85)))
(let ((.def_108 (+ .def_86 .def_107)))
(let ((.def_109 (+ .def_90 .def_108)))
(let ((.def_110 (+ .def_80 .def_109)))
(let ((.def_103 (* (- 10.0) .def_65)))
(let ((.def_111 (+ .def_103 .def_110)))
(let ((.def_112 (+ .def_105 .def_111)))
(let ((.def_142 (<= .def_112 0.0 )))
(let ((.def_156 (not .def_142)))
(let ((.def_140 (<= b.y__AT0 .def_65)))
(let ((.def_157 (or .def_140 .def_156)))
(let ((.def_66 (<= .def_65 b.y__AT0)))
(let ((.def_154 (not .def_66)))
(let ((.def_113 (<= 0.0 .def_112)))
(let ((.def_155 (or .def_113 .def_154)))
(let ((.def_158 (and .def_155 .def_157)))
(let ((.def_152 (or .def_149 .def_151)))
(let ((.def_153 (not .def_152)))
(let ((.def_159 (or .def_153 .def_158)))
(let ((.def_144 (not .def_113)))
(let ((.def_145 (or .def_66 .def_144)))
(let ((.def_141 (not .def_140)))
(let ((.def_143 (or .def_141 .def_142)))
(let ((.def_146 (and .def_143 .def_145)))
(let ((.def_138 (or .def_133 .def_137)))
(let ((.def_139 (not .def_138)))
(let ((.def_147 (or .def_139 .def_146)))
(let ((.def_160 (and .def_147 .def_159)))
(let ((.def_114 (and .def_66 .def_113)))
(let ((.def_161 (and .def_114 .def_160)))
(let ((.def_204 (and .def_161 .def_203)))
(let ((.def_205 (and .def_73 .def_204)))
(let ((.def_74 (and .def_66 .def_73)))
(let ((.def_61 (or .def_58 .def_60)))
(let ((.def_51 (or .def_39 .def_41)))
(let ((.def_55 (or b.counter.3__AT0 .def_51)))
(let ((.def_52 (or b.counter.2__AT0 .def_51)))
(let ((.def_50 (or .def_41 .def_44)))
(let ((.def_53 (and .def_50 .def_52)))
(let ((.def_54 (or .def_47 .def_53)))
(let ((.def_56 (and .def_54 .def_55)))
(let ((.def_62 (and .def_56 .def_61)))
(let ((.def_75 (and .def_62 .def_74)))
(let ((.def_45 (and .def_42 .def_44)))
(let ((.def_48 (and .def_45 .def_47)))
(let ((.def_36 (= b.speed_y__AT0 1.0 )))
(let ((.def_33 (= b.speed_x__AT0 1.0 )))
(let ((.def_29 (= b.y__AT0 10.0 )))
(let ((.def_25 (= b.x__AT0 0.0 )))
(let ((.def_21 (= b.time__AT0 0.0 )))
(let ((.def_23 (and .def_21 b.event_is_timed__AT0)))
(let ((.def_26 (and .def_23 .def_25)))
(let ((.def_30 (and .def_26 .def_29)))
(let ((.def_34 (and .def_30 .def_33)))
(let ((.def_37 (and .def_34 .def_36)))
(let ((.def_49 (and .def_37 .def_48)))
(let ((.def_76 (and .def_49 .def_75)))
(let ((.def_10 (and .def_6 .def_9)))
(let ((.def_16 (or .def_10 b.counter.3__AT2)))
(let ((.def_11 (or b.counter.2__AT2 .def_10)))
(let ((.def_7 (or .def_4 .def_6)))
(let ((.def_12 (and .def_7 .def_11)))
(let ((.def_15 (or .def_12 .def_14)))
(let ((.def_17 (and .def_15 .def_16)))
(let ((.def_18 (not .def_17)))
(let ((.def_77 (and .def_18 .def_76)))
(let ((.def_206 (and .def_77 .def_205)))
(let ((.def_411 (and .def_206 .def_410)))
(let ((.def_533 (and .def_411 .def_532)))
(let ((.def_721 (and .def_533 .def_720)))
(let ((.def_843 (and .def_721 .def_842)))
.def_843))))))))))))))))))))))))))))))))))))))))))))))))))))))))))))))))))))))))))))))))))))))))))))))))))))))))))))))))))))))))))))))))))))))))))))))))))))))))))))))))))))))))))))))))))))))))))))))))))))))))))))))))))))))))))))))))))))))))))))))))))))))))))))))))))))))))))))))))))))))))))))))))))))))))))))))))))))))))))))))))))))))))))))))))))))))))))))))))))))))))))))))))))))))))))))))))))))))))))))))))))))))))))))))))))))))))))))))))))))))))))))))))))))))))))))))))))))))))))))))))))))))))))))))))))))))))))))))))))))))))))))))))))))))))))))))))))))))))))))))))))))))))))))))))))))))))))))))))))))))))))))))))))))))))))))))))))))))))))))))))))))))))))))))))))))))))))))))))))))))))))))))))))))))))))))))))))))))))))
(check-sat)
(exit)
